
===== New CPLEX run =====
Instance: /home/yorig/tuner/mpils-tests/instances/miplib/medium-1/neos-3024952-loue.mps
Config: /scratch/yorig/mpils-results-grid-seconds-10-no-mip-start/medium-1/4proc/seed-4/9_neos-3024952-loue_seed-4_20260503_044340/expansion/config_param_CPXPARAM_MIP_Strategy_BBInterval_3_iter_1.prm
========================

Selected objective sense:  MINIMIZE
Selected objective  name:  R3706
Selected RHS        name:  B
Selected bound      name:  BOUND
Version identifier: 22.1.2.0 | 2024-11-26 | 0edbb82fd
CPXPARAM_Threads                                 8
CPXPARAM_Parallel                                1
CPXPARAM_MIP_Cuts_Cliques                        2
CPXPARAM_MIP_Cuts_FlowCovers                     -1
CPXPARAM_MIP_Cuts_Implied                        -1
CPXPARAM_MIP_Cuts_GUBCovers                      2
CPXPARAM_MIP_Cuts_PathCut                        2
CPXPARAM_MIP_Cuts_MIRCut                         2
CPXPARAM_Emphasis_MIP                            1
CPXPARAM_MIP_Strategy_BBInterval                 3
CPXPARAM_TimeLimit                               10
Tried aggregator 2 times.
MIP Presolve eliminated 40 rows and 0 columns.
MIP Presolve modified 80 coefficients.
Aggregator did 32 substitutions.
Reduced MIP has 3633 rows, 3223 columns, and 15906 nonzeros.
Reduced MIP has 0 binaries, 3223 generals, 0 SOSs, and 0 indicators.
Presolve time = 0.01 sec. (7.72 ticks)
Tried aggregator 1 time.
Detecting symmetries...
Reduced MIP has 3633 rows, 3223 columns, and 15906 nonzeros.
Reduced MIP has 0 binaries, 3223 generals, 0 SOSs, and 0 indicators.
Presolve time = 0.01 sec. (8.53 ticks)
MIP emphasis: integer feasibility.
MIP search method: dynamic search.
Parallel mode: deterministic, using up to 8 threads.
Root relaxation solution time = 0.23 sec. (166.79 ticks)

        Nodes                                         Cuts/
   Node  Left     Objective  IInf  Best Integer    Best Bound    ItCnt     Gap

      0     0    22882.0000   397                  22882.0000     3901         
      0     0    23621.5017   727                   Cuts: 491     4422         
      0     0    23799.4952   886                   Cuts: 232     4569         
      0     0    23874.9587   882                   Cuts: 133     4628         
Detecting symmetries...
      0     2    23874.9587   882                  23874.9587     4628         
Elapsed time = 0.82 sec. (516.87 ticks, tree = 0.02 MB, solutions = 0)
    741   642    23994.4915   673                  23874.9587     9845         
   1525  1398    24086.4433   684                  23874.9587    18288         
   2303  2174    25106.3922   707                  23874.9587    28104         
   3145  2921    24632.6886   574                  23874.9587    37762         
   4030  3825    25507.9086   477                  23874.9587    51208         
   4856  4623    25729.2400   545                  23874.9587    65775         
   5791  5676    26426.5461   512                  23874.9587    81536         
   6752  6485    26713.0791   292                  23874.9587    93542         
   7743  7537    27930.8667   232                  23874.9587   108280         
  12030 11768    31434.0000    54                  23874.9587   152515         
Elapsed time = 5.21 sec. (3617.34 ticks, tree = 46.74 MB, solutions = 0)
* 12110+11437                        32436.0000    23874.9587            26.39%
* 12645 11778      integral     0    31819.0000    23874.9587   154510   24.97%
* 12881+11846                        30773.0000    23874.9587            22.42%
  13874 11939    25317.9857   542    30773.0000    23874.9587   173646   22.42%
  15187 13108    24570.3000   580    30773.0000    23874.9587   188185   22.42%
* 15622+11353                        30703.0000    23874.9587            22.24%

Performing restart 1

Repeating presolve.
Tried aggregator 1 time.
MIP Presolve modified 16 coefficients.
Reduced MIP has 3633 rows, 3223 columns, and 15892 nonzeros.
Reduced MIP has 0 binaries, 3223 generals, 0 SOSs, and 0 indicators.
Presolve time = 0.00 sec. (6.35 ticks)
Tried aggregator 1 time.
Reduced MIP has 3633 rows, 3223 columns, and 15892 nonzeros.
Reduced MIP has 0 binaries, 3223 generals, 0 SOSs, and 0 indicators.
Presolve time = 0.01 sec. (8.82 ticks)
Represolve time = 0.02 sec. (24.64 ticks)
  16382     0    24084.7719  1013    30703.0000     Cuts: 275   212375   21.56%

GUB cover cuts applied:  0
Clique cuts applied:  0
Mixed integer rounding cuts applied:  376
Flow path cuts applied:  0
Zero-half cuts applied:  65
Gomory fractional cuts applied:  69

Root node processing (before b&c):
  Real time             =    0.80 sec. (514.52 ticks)
Parallel b&c, 8 threads:
  Real time             =    9.29 sec. (6326.24 ticks)
  Sync time (average)   =    2.53 sec.
  Wait time (average)   =    0.00 sec.
                          ------------
Total (root+branch&cut) =   10.09 sec. (6840.76 ticks)
Gap: 21.56%
Upper bound: 30703
Lower bound: 24084.8
End of CPLEX run. Time: 10.0935 seconds
